DIMENSION :10
NODE_COORD_SECTION
1 -70.33888493322121 35.18694162250782
2 84.91107100123176 2.2975755960497537
3 40.02454324099082 93.23876885597582
4 -91.24890882731478 50.10793248037547
5 5.482839109957865 -4.153496609303403
6 -93.39923507654231 -78.41373445990814
7 -12.548398901648156 23.507191761757156
8 -48.85398204407356 37.09320568216836
9 -33.2603735240462 70.39336378551093
10 -99.56110024836713 -57.638806299001885
EOF
